(set-logic HORN)
(set-info :source |
    Benchmark: C_VC
    Output by Princess (http://www.philipp.ruemmer.org/princess.shtml)
|)
(set-info :status sat)
(declare-heap Heap Addr HeapObject
 defObj
 ((HeapObject 0)) (
  (
   (O_Int (getInt Int))
   (O_UInt (getUInt Int))
   (O_Addr (getAddr Addr))
   (defObj)
  )
))
(declare-fun inv_main12 (Heap Int Int Int Addr Addr Addr Addr) Bool)
(declare-fun inv_main13 (Heap Int Int Int Addr Addr Addr Addr) Bool)
(declare-fun inv_main14 (Heap Int Int Int Addr Addr Addr Addr) Bool)
(declare-fun inv_main15 (Heap Int Int Int Addr Addr Addr Addr) Bool)
(declare-fun inv_main16 (Heap Int Int Int Addr Addr Addr Addr) Bool)
(declare-fun inv_main17 (Heap Int Int Int Addr Addr Addr Addr) Bool)
(declare-fun inv_main18 (Heap Int Int Int Addr Addr Addr Addr) Bool)
(declare-fun inv_main19 (Heap Int Int Int Addr Addr Addr Addr Int) Bool)
(declare-fun inv_main2 (Heap) Bool)
(declare-fun inv_main20 (Heap Int Int Int Addr Addr Addr Addr) Bool)
(declare-fun inv_main21 (Heap Int Int Int Addr Addr Addr Addr) Bool)
(declare-fun inv_main22 (Heap Int Int Int Addr Addr Addr Addr) Bool)
(declare-fun inv_main23 (Heap Int Int Int Addr Addr Addr Addr Int) Bool)
(declare-fun inv_main24 (Heap Int Int Int Addr Addr Addr Addr Int) Bool)
(declare-fun inv_main25 (Heap Int Int Int Addr Addr Addr Addr Int) Bool)
(declare-fun inv_main26 (Heap Int Int Int Addr Addr Addr Addr Int) Bool)
(assert (forall ((var0 Heap)) (or (not (= var0 emptyHeap)) (inv_main2 var0))))
(assert (forall ((var0 Heap) (var1 Addr) (var2 Addr) (var3 Addr) (var4 Addr) (var5 Int) (var6 Int) (var7 Int) (var8 Heap)) (or (not (and (inv_main12 var8 var7 var6 var5 var4 var3 var2 var1) (and (and (is-O_Int (read var8 var4)) (is-O_Int (read var8 var4))) (= var0 (write var8 var4 (O_Int var7)))))) (inv_main13 var0 var7 var6 var5 var4 var3 var2 var1))))
(assert (forall ((var0 Int) (var1 Addr) (var2 Addr) (var3 Addr) (var4 Addr) (var5 Int) (var6 Int) (var7 Int) (var8 Heap)) (or (not (and (inv_main23 var8 var7 var6 var5 var4 var3 var2 var1 var0) (and (is-O_Int (read var8 var2)) (<= 0 (+ (+ (getInt (read var8 var2)) (* (- 1) var0)) (- 1)))))) (inv_main21 var8 var7 var6 var5 var4 var3 var2 var1))))
(assert (forall ((var0 Addr) (var1 Int) (var2 Heap) (var3 Int) (var4 Int) (var5 Int) (var6 Int) (var7 Addr) (var8 Int) (var9 Int) (var10 Int) (var11 Int) (var12 Heap) (var13 Addr) (var14 Addr) (var15 Addr) (var16 Addr) (var17 Addr) (var18 Int) (var19 Int) (var20 Int) (var21 Int) (var22 Int) (var23 Int) (var24 Int) (var25 Heap) (var26 Heap) (var27 Heap)) (or (not (and (inv_main2 var27) (and (and (and (and (and (and (and (and (and (and (= var26 (newHeap (alloc var25 (O_Int var24)))) (= var23 var22)) (= var21 var20)) (= var19 var18)) (= var17 var16)) (= var15 var14)) (= var13 (newAddr (alloc var25 (O_Int var24))))) (and (and (and (and (and (= var25 (newHeap (alloc var12 (O_Int var11)))) (= var22 var10)) (= var20 var9)) (= var18 var8)) (= var16 var7)) (= var14 (newAddr (alloc var12 (O_Int var11)))))) (and (and (and (and (= var12 (newHeap (alloc var27 (O_Int var6)))) (= var10 var5)) (= var9 var4)) (= var8 var3)) (= var7 (newAddr (alloc var27 (O_Int var6)))))) (= var2 (newHeap (alloc var26 (O_Int var1))))) (= var0 (newAddr (alloc var26 (O_Int var1))))))) (inv_main12 var2 var23 var21 var19 var17 var15 var13 var0))))
(assert (forall ((var0 Int) (var1 Addr) (var2 Addr) (var3 Addr) (var4 Addr) (var5 Int) (var6 Int) (var7 Int) (var8 Heap)) (or (not (and (inv_main18 var8 var7 var6 var5 var4 var3 var2 var1) (and (is-O_Int (read var8 var4)) (= var0 (getInt (read var8 var4)))))) (inv_main23 var8 var7 var6 var5 var4 var3 var2 var1 var0))))
(assert (forall ((var0 Heap) (var1 Addr) (var2 Addr) (var3 Addr) (var4 Addr) (var5 Int) (var6 Int) (var7 Int) (var8 Heap)) (or (not (and (inv_main14 var8 var7 var6 var5 var4 var3 var2 var1) (and (and (is-O_Int (read var8 var2)) (is-O_Int (read var8 var2))) (= var0 (write var8 var2 (O_Int var5)))))) (inv_main15 var0 var7 var6 var5 var4 var3 var2 var1))))
(assert (forall ((var0 Int) (var1 Addr) (var2 Addr) (var3 Addr) (var4 Addr) (var5 Int) (var6 Int) (var7 Int) (var8 Heap)) (or (not (and (inv_main16 var8 var7 var6 var5 var4 var3 var2 var1) (and (is-O_Int (read var8 var4)) (= var0 (getInt (read var8 var4)))))) (inv_main19 var8 var7 var6 var5 var4 var3 var2 var1 var0))))
(assert (forall ((var0 Int) (var1 Addr) (var2 Addr) (var3 Addr) (var4 Addr) (var5 Int) (var6 Int) (var7 Int) (var8 Heap)) (or (not (and (inv_main19 var8 var7 var6 var5 var4 var3 var2 var1 var0) (and (is-O_Int (read var8 var3)) (<= 0 (+ (+ (getInt (read var8 var3)) (* (- 1) var0)) (- 1)))))) (inv_main18 var8 var7 var6 var5 var4 var3 var2 var1))))
(assert (forall ((var0 Heap) (var1 Int) (var2 Addr) (var3 Addr) (var4 Addr) (var5 Addr) (var6 Int) (var7 Int) (var8 Int) (var9 Heap)) (or (not (and (inv_main24 var9 var8 var7 var6 var5 var4 var3 var2 var1) (and (and (is-O_Int (read var9 var5)) (is-O_Int (read var9 var5))) (= var0 (write var9 var5 (O_Int (+ var1 1))))))) (inv_main20 var0 var8 var7 var6 var5 var4 var3 var2))))
(assert (forall ((var0 Heap) (var1 Int) (var2 Addr) (var3 Addr) (var4 Addr) (var5 Addr) (var6 Int) (var7 Int) (var8 Int) (var9 Heap)) (or (not (and (inv_main25 var9 var8 var7 var6 var5 var4 var3 var2 var1) (and (and (is-O_Int (read var9 var3)) (is-O_Int (read var9 var3))) (= var0 (write var9 var3 (O_Int (+ var1 1))))))) (inv_main20 var0 var8 var7 var6 var5 var4 var3 var2))))
(assert (forall ((var0 Int) (var1 Addr) (var2 Addr) (var3 Addr) (var4 Addr) (var5 Int) (var6 Int) (var7 Int) (var8 Heap)) (or (not (and (inv_main22 var8 var7 var6 var5 var4 var3 var2 var1) (and (is-O_Int (read var8 var2)) (= var0 (getInt (read var8 var2)))))) (inv_main25 var8 var7 var6 var5 var4 var3 var2 var1 var0))))
(assert (forall ((var0 Heap) (var1 Addr) (var2 Addr) (var3 Addr) (var4 Addr) (var5 Int) (var6 Int) (var7 Int) (var8 Heap)) (or (not (and (inv_main13 var8 var7 var6 var5 var4 var3 var2 var1) (and (and (is-O_Int (read var8 var3)) (is-O_Int (read var8 var3))) (= var0 (write var8 var3 (O_Int var6)))))) (inv_main14 var0 var7 var6 var5 var4 var3 var2 var1))))
(assert (forall ((var0 Int) (var1 Addr) (var2 Addr) (var3 Addr) (var4 Addr) (var5 Int) (var6 Int) (var7 Int) (var8 Heap)) (or (not (and (inv_main21 var8 var7 var6 var5 var4 var3 var2 var1) (and (is-O_Int (read var8 var4)) (= var0 (getInt (read var8 var4)))))) (inv_main24 var8 var7 var6 var5 var4 var3 var2 var1 var0))))
(assert (forall ((var0 Heap) (var1 Addr) (var2 Addr) (var3 Addr) (var4 Addr) (var5 Int) (var6 Int) (var7 Int) (var8 Heap)) (or (not (and (inv_main15 var8 var7 var6 var5 var4 var3 var2 var1) (and (and (is-O_Int (read var8 var1)) (is-O_Int (read var8 var1))) (= var0 (write var8 var1 (O_Int 0)))))) (inv_main16 var0 var7 var6 var5 var4 var3 var2 var1))))
(assert (forall ((var0 Heap) (var1 Int) (var2 Addr) (var3 Addr) (var4 Addr) (var5 Addr) (var6 Int) (var7 Int) (var8 Int) (var9 Heap)) (or (not (and (inv_main26 var9 var8 var7 var6 var5 var4 var3 var2 var1) (and (and (is-O_Int (read var9 var2)) (is-O_Int (read var9 var2))) (= var0 (write var9 var2 (O_Int (+ var1 1))))))) (inv_main16 var0 var8 var7 var6 var5 var4 var3 var2))))
(assert (forall ((var0 Int) (var1 Addr) (var2 Addr) (var3 Addr) (var4 Addr) (var5 Int) (var6 Int) (var7 Int) (var8 Heap)) (or (not (and (inv_main19 var8 var7 var6 var5 var4 var3 var2 var1 var0) (and (is-O_Int (read var8 var3)) (not (<= 0 (+ (+ (getInt (read var8 var3)) (* (- 1) var0)) (- 1))))))) (inv_main17 var8 var7 var6 var5 var4 var3 var2 var1))))
(assert (forall ((var0 Int) (var1 Addr) (var2 Addr) (var3 Addr) (var4 Addr) (var5 Int) (var6 Int) (var7 Int) (var8 Heap)) (or (not (and (inv_main23 var8 var7 var6 var5 var4 var3 var2 var1 var0) (and (is-O_Int (read var8 var2)) (not (<= 0 (+ (+ (getInt (read var8 var2)) (* (- 1) var0)) (- 1))))))) (inv_main22 var8 var7 var6 var5 var4 var3 var2 var1))))
(assert (forall ((var0 Int) (var1 Addr) (var2 Addr) (var3 Addr) (var4 Addr) (var5 Int) (var6 Int) (var7 Int) (var8 Heap)) (or (not (and (inv_main20 var8 var7 var6 var5 var4 var3 var2 var1) (and (is-O_Int (read var8 var1)) (= var0 (getInt (read var8 var1)))))) (inv_main26 var8 var7 var6 var5 var4 var3 var2 var1 var0))))
(assert (forall ((var0 Addr) (var1 Addr) (var2 Addr) (var3 Addr) (var4 Int) (var5 Int) (var6 Int) (var7 Heap)) (not (and (inv_main12 var7 var6 var5 var4 var3 var2 var1 var0) (not (is-O_Int (read var7 var3)))))))
(assert (forall ((var0 Addr) (var1 Addr) (var2 Addr) (var3 Addr) (var4 Int) (var5 Int) (var6 Int) (var7 Heap)) (not (and (inv_main12 var7 var6 var5 var4 var3 var2 var1 var0) (and (is-O_Int (read var7 var3)) (not (is-O_Int (read var7 var3))))))))
(assert (forall ((var0 Addr) (var1 Addr) (var2 Addr) (var3 Addr) (var4 Int) (var5 Int) (var6 Int) (var7 Heap)) (not (and (inv_main13 var7 var6 var5 var4 var3 var2 var1 var0) (not (is-O_Int (read var7 var2)))))))
(assert (forall ((var0 Addr) (var1 Addr) (var2 Addr) (var3 Addr) (var4 Int) (var5 Int) (var6 Int) (var7 Heap)) (not (and (inv_main13 var7 var6 var5 var4 var3 var2 var1 var0) (and (is-O_Int (read var7 var2)) (not (is-O_Int (read var7 var2))))))))
(assert (forall ((var0 Addr) (var1 Addr) (var2 Addr) (var3 Addr) (var4 Int) (var5 Int) (var6 Int) (var7 Heap)) (not (and (inv_main14 var7 var6 var5 var4 var3 var2 var1 var0) (not (is-O_Int (read var7 var1)))))))
(assert (forall ((var0 Addr) (var1 Addr) (var2 Addr) (var3 Addr) (var4 Int) (var5 Int) (var6 Int) (var7 Heap)) (not (and (inv_main14 var7 var6 var5 var4 var3 var2 var1 var0) (and (is-O_Int (read var7 var1)) (not (is-O_Int (read var7 var1))))))))
(assert (forall ((var0 Addr) (var1 Addr) (var2 Addr) (var3 Addr) (var4 Int) (var5 Int) (var6 Int) (var7 Heap)) (not (and (inv_main15 var7 var6 var5 var4 var3 var2 var1 var0) (not (is-O_Int (read var7 var0)))))))
(assert (forall ((var0 Addr) (var1 Addr) (var2 Addr) (var3 Addr) (var4 Int) (var5 Int) (var6 Int) (var7 Heap)) (not (and (inv_main15 var7 var6 var5 var4 var3 var2 var1 var0) (and (is-O_Int (read var7 var0)) (not (is-O_Int (read var7 var0))))))))
(assert (forall ((var0 Addr) (var1 Addr) (var2 Addr) (var3 Addr) (var4 Int) (var5 Int) (var6 Int) (var7 Heap)) (not (and (inv_main16 var7 var6 var5 var4 var3 var2 var1 var0) (not (is-O_Int (read var7 var3)))))))
(assert (forall ((var0 Int) (var1 Addr) (var2 Addr) (var3 Addr) (var4 Addr) (var5 Int) (var6 Int) (var7 Int) (var8 Heap)) (not (and (inv_main19 var8 var7 var6 var5 var4 var3 var2 var1 var0) (not (is-O_Int (read var8 var3)))))))
(assert (forall ((var0 Addr) (var1 Addr) (var2 Addr) (var3 Addr) (var4 Int) (var5 Int) (var6 Int) (var7 Heap)) (not (and (inv_main18 var7 var6 var5 var4 var3 var2 var1 var0) (not (is-O_Int (read var7 var3)))))))
(assert (forall ((var0 Int) (var1 Addr) (var2 Addr) (var3 Addr) (var4 Addr) (var5 Int) (var6 Int) (var7 Int) (var8 Heap)) (not (and (inv_main23 var8 var7 var6 var5 var4 var3 var2 var1 var0) (not (is-O_Int (read var8 var2)))))))
(assert (forall ((var0 Addr) (var1 Addr) (var2 Addr) (var3 Addr) (var4 Int) (var5 Int) (var6 Int) (var7 Heap)) (not (and (inv_main21 var7 var6 var5 var4 var3 var2 var1 var0) (not (is-O_Int (read var7 var3)))))))
(assert (forall ((var0 Int) (var1 Addr) (var2 Addr) (var3 Addr) (var4 Addr) (var5 Int) (var6 Int) (var7 Int) (var8 Heap)) (not (and (inv_main24 var8 var7 var6 var5 var4 var3 var2 var1 var0) (not (is-O_Int (read var8 var4)))))))
(assert (forall ((var0 Int) (var1 Addr) (var2 Addr) (var3 Addr) (var4 Addr) (var5 Int) (var6 Int) (var7 Int) (var8 Heap)) (not (and (inv_main24 var8 var7 var6 var5 var4 var3 var2 var1 var0) (and (is-O_Int (read var8 var4)) (not (is-O_Int (read var8 var4))))))))
(assert (forall ((var0 Addr) (var1 Addr) (var2 Addr) (var3 Addr) (var4 Int) (var5 Int) (var6 Int) (var7 Heap)) (not (and (inv_main22 var7 var6 var5 var4 var3 var2 var1 var0) (not (is-O_Int (read var7 var1)))))))
(assert (forall ((var0 Int) (var1 Addr) (var2 Addr) (var3 Addr) (var4 Addr) (var5 Int) (var6 Int) (var7 Int) (var8 Heap)) (not (and (inv_main25 var8 var7 var6 var5 var4 var3 var2 var1 var0) (not (is-O_Int (read var8 var2)))))))
(assert (forall ((var0 Int) (var1 Addr) (var2 Addr) (var3 Addr) (var4 Addr) (var5 Int) (var6 Int) (var7 Int) (var8 Heap)) (not (and (inv_main25 var8 var7 var6 var5 var4 var3 var2 var1 var0) (and (is-O_Int (read var8 var2)) (not (is-O_Int (read var8 var2))))))))
(assert (forall ((var0 Addr) (var1 Addr) (var2 Addr) (var3 Addr) (var4 Int) (var5 Int) (var6 Int) (var7 Heap)) (not (and (inv_main20 var7 var6 var5 var4 var3 var2 var1 var0) (not (is-O_Int (read var7 var0)))))))
(assert (forall ((var0 Int) (var1 Addr) (var2 Addr) (var3 Addr) (var4 Addr) (var5 Int) (var6 Int) (var7 Int) (var8 Heap)) (not (and (inv_main26 var8 var7 var6 var5 var4 var3 var2 var1 var0) (not (is-O_Int (read var8 var1)))))))
(assert (forall ((var0 Int) (var1 Addr) (var2 Addr) (var3 Addr) (var4 Addr) (var5 Int) (var6 Int) (var7 Int) (var8 Heap)) (not (and (inv_main26 var8 var7 var6 var5 var4 var3 var2 var1 var0) (and (is-O_Int (read var8 var1)) (not (is-O_Int (read var8 var1))))))))
(assert (forall ((var0 Addr) (var1 Addr) (var2 Addr) (var3 Addr) (var4 Int) (var5 Int) (var6 Int) (var7 Heap)) (not (and (inv_main17 var7 var6 var5 var4 var3 var2 var1 var0) (not (is-O_Int (read var7 var0)))))))
(check-sat)
